(set-info :smt-lib-version 2.6)
(set-logic QF_S)
(set-info :source |
Generated by: Hung-En Wang, Tzung-Lin Tsai, Chun-Han Lin, Fang Yu, and Jie-Hong R. Jiang
Generated on: 2019-02-28
Generator: Stranger
Application: Security analysis of string manipulating web applications
Target solver: CVC4, Norn, Z3-str2
Publication:
Hung-En Wang, Tzung-Lin Tsai, Chun-Han Lin, Fang Yu, Jie-Hong R. Jiang:
String Analysis via Automata Manipulation with Logic Circuit Representation. CAV (1) 2016: 241-260.
|)
(set-info :license "https://creativecommons.org/licenses/by/4.0/")
(set-info :category "industrial")
(set-info :status unknown)

(declare-fun sigmaStar_0 () String)
(declare-fun sigmaStar_1 () String)
(declare-fun literal_4 () String)
(declare-fun x_5 () String)
(declare-fun literal_6 () String)
(declare-fun x_7 () String)
(declare-fun x_8 () String)
(declare-fun literal_9 () String)
(declare-fun x_10 () String)
(declare-fun literal_11 () String)
(declare-fun x_12 () String)
(declare-fun literal_13 () String)
(declare-fun x_14 () String)
(assert (= literal_4 "\u{3c}\u{73}\u{63}\u{72}\u{69}\u{70}\u{74}\u{20}\u{6c}\u{61}\u{6e}\u{67}\u{75}\u{61}\u{67}\u{65}\u{3d}\u{27}\u{6a}\u{61}\u{76}\u{61}\u{73}\u{63}\u{72}\u{69}\u{70}\u{74}\u{27}\u{20}\u{74}\u{79}\u{70}\u{65}\u{3d}\u{27}\u{74}\u{65}\u{78}\u{74}\u{2f}\u{6a}\u{61}\u{76}\u{61}\u{73}\u{63}\u{72}\u{69}\u{70}\u{74}\u{27}\u{20}\u{73}\u{72}\u{63}\u{3d}\u{27}\u{6a}\u{73}\u{63}\u{72}\u{69}\u{70}\u{74}\u{73}\u{2f}\u{74}\u{69}\u{6e}\u{79}\u{5f}\u{6d}\u{63}\u{65}\u{2f}\u{74}\u{69}\u{6e}\u{79}\u{5f}\u{6d}\u{63}\u{65}\u{5f}\u{67}\u{7a}\u{69}\u{70}\u{2e}\u{70}\u{68}\u{70}\u{27}\u{3e}\u{3c}\u{2f}\u{73}\u{63}\u{72}\u{69}\u{70}\u{74}\u{3e}\u{0d}\u{0a}\u{3c}\u{73}\u{63}\u{72}\u{69}\u{70}\u{74}\u{20}\u{74}\u{79}\u{70}\u{65}\u{3d}\u{27}\u{74}\u{65}\u{78}\u{74}\u{2f}\u{6a}\u{61}\u{76}\u{61}\u{73}\u{63}\u{72}\u{69}\u{70}\u{74}\u{27}\u{3e}\u{0d}\u{0a}\u{66}\u{75}\u{6e}\u{63}\u{74}\u{69}\u{6f}\u{6e}\u{20}\u{61}\u{64}\u{76}\u{61}\u{6e}\u{63}\u{65}\u{64}\u{28}\u{29}\u{20}\u{7b}\u{0d}\u{0a}\u{09}\u{74}\u{69}\u{6e}\u{79}\u{4d}\u{43}\u{45}\u{2e}\u{69}\u{6e}\u{69}\u{74}\u{28}\u{7b}\u{0d}\u{0a}\u{09}\u{6d}\u{6f}\u{64}\u{65}\u{3a}\u{27}\u{74}\u{65}\u{78}\u{74}\u{61}\u{72}\u{65}\u{61}\u{73}\u{27}\u{2c}\u{0d}\u{0a}\u{09}\u{74}\u{68}\u{65}\u{6d}\u{65}\u{3a}\u{27}\u{61}\u{64}\u{76}\u{61}\u{6e}\u{63}\u{65}\u{64}\u{27}\u{2c}\u{0d}\u{0a}\u{09}\u{77}\u{69}\u{64}\u{74}\u{68}\u{3a}\u{27}\u{31}\u{30}\u{30}\u{25}\u{27}\u{2c}\u{0d}\u{0a}\u{09}\u{68}\u{65}\u{69}\u{67}\u{68}\u{74}\u{3a}\u{27}\u{32}\u{35}\u{30}\u{27}\u{2c}\u{0d}\u{0a}\u{09}\u{6c}\u{61}\u{6e}\u{67}\u{75}\u{61}\u{67}\u{65}\u{3a}\u{27}"))
(assert (= x_5 (str.++ literal_4 sigmaStar_0)))
(assert (= literal_6 "\u{27}\u{2c}\u{0d}\u{0a}\u{09}\u{65}\u{6e}\u{74}\u{69}\u{74}\u{69}\u{65}\u{73}\u{3a}\u{27}\u{36}\u{30}\u{2c}\u{6c}\u{74}\u{2c}\u{36}\u{32}\u{2c}\u{67}\u{74}\u{27}\u{2c}\u{0d}\u{0a}\u{09}\u{64}\u{6f}\u{63}\u{75}\u{6d}\u{65}\u{6e}\u{74}\u{5f}\u{62}\u{61}\u{73}\u{65}\u{5f}\u{75}\u{72}\u{6c}\u{3a}\u{27}"))
(assert (= x_7 (str.++ x_5 literal_6)))
(assert (= x_8 (str.++ x_7 sigmaStar_1)))
(assert (= literal_9 "\u{27}\u{2c}\u{0d}\u{0a}\u{09}\u{72}\u{65}\u{6c}\u{61}\u{74}\u{69}\u{76}\u{65}\u{5f}\u{75}\u{72}\u{6c}\u{73}\u{3a}\u{27}\u{66}\u{61}\u{6c}\u{73}\u{65}\u{27}\u{2c}\u{0d}\u{0a}\u{09}\u{63}\u{6f}\u{6e}\u{76}\u{65}\u{72}\u{74}\u{5f}\u{6e}\u{65}\u{77}\u{6c}\u{69}\u{6e}\u{65}\u{73}\u{5f}\u{74}\u{6f}\u{5f}\u{62}\u{72}\u{73}\u{3a}\u{27}\u{74}\u{72}\u{75}\u{65}\u{27}\u{2c}\u{0d}\u{0a}\u{09}\u{66}\u{6f}\u{72}\u{63}\u{65}\u{5f}\u{62}\u{72}\u{5f}\u{6e}\u{65}\u{77}\u{6c}\u{69}\u{6e}\u{65}\u{73}\u{3a}\u{27}\u{74}\u{72}\u{75}\u{65}\u{27}\u{2c}\u{0d}\u{0a}\u{09}\u{66}\u{6f}\u{72}\u{63}\u{65}\u{5f}\u{70}\u{5f}\u{6e}\u{65}\u{77}\u{6c}\u{69}\u{6e}\u{65}\u{73}\u{3a}\u{27}\u{66}\u{61}\u{6c}\u{73}\u{65}\u{27}\u{2c}\u{0d}\u{0a}\u{09}\u{70}\u{6c}\u{75}\u{67}\u{69}\u{6e}\u{73}\u{3a}\u{27}\u{74}\u{61}\u{62}\u{6c}\u{65}\u{2c}\u{61}\u{64}\u{76}\u{68}\u{72}\u{2c}\u{61}\u{64}\u{76}\u{69}\u{6d}\u{61}\u{67}\u{65}\u{2c}\u{61}\u{64}\u{76}\u{6c}\u{69}\u{6e}\u{6b}\u{2c}\u{69}\u{6e}\u{73}\u{65}\u{72}\u{74}\u{64}\u{61}\u{74}\u{65}\u{74}\u{69}\u{6d}\u{65}\u{2c}\u{73}\u{65}\u{61}\u{72}\u{63}\u{68}\u{72}\u{65}\u{70}\u{6c}\u{61}\u{63}\u{65}\u{2c}\u{63}\u{6f}\u{6e}\u{74}\u{65}\u{78}\u{74}\u{6d}\u{65}\u{6e}\u{75}\u{2c}\u{69}\u{62}\u{72}\u{6f}\u{77}\u{73}\u{65}\u{72}\u{27}\u{2c}\u{0d}\u{0a}\u{09}\u{74}\u{68}\u{65}\u{6d}\u{65}\u{5f}\u{61}\u{64}\u{76}\u{61}\u{6e}\u{63}\u{65}\u{64}\u{5f}\u{62}\u{75}\u{74}\u{74}\u{6f}\u{6e}\u{73}\u{31}\u{5f}\u{61}\u{64}\u{64}\u{3a}\u{27}\u{66}\u{6f}\u{6e}\u{74}\u{73}\u{69}\u{7a}\u{65}\u{73}\u{65}\u{6c}\u{65}\u{63}\u{74}\u{27}\u{2c}\u{0d}\u{0a}\u{09}\u{74}\u{68}\u{65}\u{6d}\u{65}\u{5f}\u{61}\u{64}\u{76}\u{61}\u{6e}\u{63}\u{65}\u{64}\u{5f}\u{62}\u{75}\u{74}\u{74}\u{6f}\u{6e}\u{73}\u{32}\u{5f}\u{61}\u{64}\u{64}\u{3a}\u{27}\u{73}\u{65}\u{70}\u{61}\u{72}\u{61}\u{74}\u{6f}\u{72}\u{2c}\u{69}\u{6e}\u{73}\u{65}\u{72}\u{74}\u{64}\u{61}\u{74}\u{65}\u{2c}\u{69}\u{6e}\u{73}\u{65}\u{72}\u{74}\u{74}\u{69}\u{6d}\u{65}\u{2c}\u{73}\u{65}\u{70}\u{61}\u{72}\u{61}\u{74}\u{6f}\u{72}\u{2c}\u{66}\u{6f}\u{72}\u{65}\u{63}\u{6f}\u{6c}\u{6f}\u{72}\u{2c}\u{62}\u{61}\u{63}\u{6b}\u{63}\u{6f}\u{6c}\u{6f}\u{72}\u{27}\u{2c}\u{0d}\u{0a}\u{09}\u{74}\u{68}\u{65}\u{6d}\u{65}\u{5f}\u{61}\u{64}\u{76}\u{61}\u{6e}\u{63}\u{65}\u{64}\u{5f}\u{62}\u{75}\u{74}\u{74}\u{6f}\u{6e}\u{73}\u{33}\u{5f}\u{61}\u{64}\u{64}\u{5f}\u{62}\u{65}\u{66}\u{6f}\u{72}\u{65}\u{3a}\u{27}\u{69}\u{62}\u{72}\u{6f}\u{77}\u{73}\u{65}\u{72}\u{2c}\u{74}\u{61}\u{62}\u{6c}\u{65}\u{63}\u{6f}\u{6e}\u{74}\u{72}\u{6f}\u{6c}\u{73}\u{2c}\u{73}\u{65}\u{70}\u{61}\u{72}\u{61}\u{74}\u{6f}\u{72}\u{27}\u{2c}\u{0d}\u{0a}\u{09}\u{74}\u{68}\u{65}\u{6d}\u{65}\u{5f}\u{61}\u{64}\u{76}\u{61}\u{6e}\u{63}\u{65}\u{64}\u{5f}\u{62}\u{75}\u{74}\u{74}\u{6f}\u{6e}\u{73}\u{33}\u{5f}\u{61}\u{64}\u{64}\u{3a}\u{27}\u{61}\u{64}\u{76}\u{68}\u{72}\u{27}\u{2c}\u{0d}\u{0a}\u{09}\u{74}\u{68}\u{65}\u{6d}\u{65}\u{5f}\u{61}\u{64}\u{76}\u{61}\u{6e}\u{63}\u{65}\u{64}\u{5f}\u{74}\u{6f}\u{6f}\u{6c}\u{62}\u{61}\u{72}\u{5f}\u{6c}\u{6f}\u{63}\u{61}\u{74}\u{69}\u{6f}\u{6e}\u{3a}\u{27}\u{62}\u{6f}\u{74}\u{74}\u{6f}\u{6d}\u{27}\u{2c}\u{0d}\u{0a}\u{09}\u{74}\u{68}\u{65}\u{6d}\u{65}\u{5f}\u{61}\u{64}\u{76}\u{61}\u{6e}\u{63}\u{65}\u{64}\u{5f}\u{74}\u{6f}\u{6f}\u{6c}\u{62}\u{61}\u{72}\u{5f}\u{61}\u{6c}\u{69}\u{67}\u{6e}\u{3a}\u{27}\u{63}\u{65}\u{6e}\u{74}\u{65}\u{72}\u{27}\u{2c}\u{0d}\u{0a}\u{09}\u{74}\u{68}\u{65}\u{6d}\u{65}\u{5f}\u{61}\u{64}\u{76}\u{61}\u{6e}\u{63}\u{65}\u{64}\u{5f}\u{70}\u{61}\u{74}\u{68}\u{5f}\u{6c}\u{6f}\u{63}\u{61}\u{74}\u{69}\u{6f}\u{6e}\u{3a}\u{27}\u{6e}\u{6f}\u{6e}\u{65}\u{27}\u{2c}\u{0d}\u{0a}\u{09}\u{74}\u{68}\u{65}\u{6d}\u{65}\u{5f}\u{61}\u{64}\u{76}\u{61}\u{6e}\u{63}\u{65}\u{64}\u{5f}\u{74}\u{6f}\u{6f}\u{6c}\u{62}\u{61}\u{72}\u{5f}\u{6c}\u{6f}\u{63}\u{61}\u{74}\u{69}\u{6f}\u{6e}\u{3a}\u{27}\u{74}\u{6f}\u{70}\u{27}\u{2c}\u{0d}\u{0a}\u{09}\u{63}\u{6f}\u{6e}\u{74}\u{65}\u{6e}\u{74}\u{5f}\u{63}\u{73}\u{73}\u{3a}\u{27}"))
(assert (= x_10 (str.++ x_8 literal_9)))
(assert (= literal_11 "\u{73}\u{74}\u{79}\u{6c}\u{65}\u{73}\u{2e}\u{63}\u{73}\u{73}\u{27}\u{2c}\u{0d}\u{0a}\u{09}\u{65}\u{78}\u{74}\u{65}\u{72}\u{6e}\u{61}\u{6c}\u{5f}\u{69}\u{6d}\u{61}\u{67}\u{65}\u{5f}\u{6c}\u{69}\u{73}\u{74}\u{5f}\u{75}\u{72}\u{6c}\u{3a}\u{27}"))
(assert (= x_12 (str.++ x_10 literal_11)))
(assert (= literal_13 "\u{69}\u{6d}\u{61}\u{67}\u{65}\u{6c}\u{69}\u{73}\u{74}\u{2e}\u{6a}\u{73}\u{27}\u{2c}\u{0d}\u{0a}\u{09}\u{70}\u{6c}\u{75}\u{67}\u{69}\u{6e}\u{5f}\u{69}\u{6e}\u{73}\u{65}\u{72}\u{74}\u{64}\u{61}\u{74}\u{65}\u{5f}\u{64}\u{61}\u{74}\u{65}\u{46}\u{6f}\u{72}\u{6d}\u{61}\u{74}\u{3a}\u{27}\u{25}\u{64}\u{2d}\u{25}\u{6d}\u{2d}\u{25}\u{59}\u{27}\u{2c}\u{0d}\u{0a}\u{09}\u{70}\u{6c}\u{75}\u{67}\u{69}\u{6e}\u{5f}\u{69}\u{6e}\u{73}\u{65}\u{72}\u{74}\u{64}\u{61}\u{74}\u{65}\u{5f}\u{74}\u{69}\u{6d}\u{65}\u{46}\u{6f}\u{72}\u{6d}\u{61}\u{74}\u{3a}\u{27}\u{25}\u{48}\u{3a}\u{25}\u{4d}\u{3a}\u{25}\u{53}\u{27}\u{2c}\u{0d}\u{0a}\u{09}\u{69}\u{6e}\u{76}\u{61}\u{6c}\u{69}\u{64}\u{5f}\u{65}\u{6c}\u{65}\u{6d}\u{65}\u{6e}\u{74}\u{73}\u{3a}\u{27}\u{73}\u{63}\u{72}\u{69}\u{70}\u{74}\u{2c}\u{6f}\u{62}\u{6a}\u{65}\u{63}\u{74}\u{2c}\u{61}\u{70}\u{70}\u{6c}\u{65}\u{74}\u{2c}\u{69}\u{66}\u{72}\u{61}\u{6d}\u{65}\u{27}\u{2c}\u{0d}\u{0a}\u{09}\u{65}\u{78}\u{74}\u{65}\u{6e}\u{64}\u{65}\u{64}\u{5f}\u{76}\u{61}\u{6c}\u{69}\u{64}\u{5f}\u{65}\u{6c}\u{65}\u{6d}\u{65}\u{6e}\u{74}\u{73}\u{3a}\u{27}\u{61}\u{5b}\u{6e}\u{61}\u{6d}\u{65}\u{7c}\u{68}\u{72}\u{65}\u{66}\u{7c}\u{74}\u{61}\u{72}\u{67}\u{65}\u{74}\u{7c}\u{74}\u{69}\u{74}\u{6c}\u{65}\u{7c}\u{6f}\u{6e}\u{63}\u{6c}\u{69}\u{63}\u{6b}\u{5d}\u{2c}\u{69}\u{6d}\u{67}\u{5b}\u{63}\u{6c}\u{61}\u{73}\u{73}\u{7c}\u{73}\u{72}\u{63}\u{7c}\u{62}\u{6f}\u{72}\u{64}\u{65}\u{72}\u{3d}\u{30}\u{7c}\u{61}\u{6c}\u{74}\u{7c}\u{74}\u{69}\u{74}\u{6c}\u{65}\u{7c}\u{68}\u{73}\u{70}\u{61}\u{63}\u{65}\u{7c}\u{76}\u{73}\u{70}\u{61}\u{63}\u{65}\u{7c}\u{77}\u{69}\u{64}\u{74}\u{68}\u{7c}\u{68}\u{65}\u{69}\u{67}\u{68}\u{74}\u{7c}\u{61}\u{6c}\u{69}\u{67}\u{6e}\u{7c}\u{6f}\u{6e}\u{6d}\u{6f}\u{75}\u{73}\u{65}\u{6f}\u{76}\u{65}\u{72}\u{7c}\u{6f}\u{6e}\u{6d}\u{6f}\u{75}\u{73}\u{65}\u{6f}\u{75}\u{74}\u{7c}\u{6e}\u{61}\u{6d}\u{65}\u{5d}\u{2c}\u{68}\u{72}\u{5b}\u{63}\u{6c}\u{61}\u{73}\u{73}\u{7c}\u{77}\u{69}\u{64}\u{74}\u{68}\u{7c}\u{73}\u{69}\u{7a}\u{65}\u{7c}\u{6e}\u{6f}\u{73}\u{68}\u{61}\u{64}\u{65}\u{5d}\u{2c}\u{66}\u{6f}\u{6e}\u{74}\u{5b}\u{66}\u{61}\u{63}\u{65}\u{7c}\u{73}\u{69}\u{7a}\u{65}\u{7c}\u{63}\u{6f}\u{6c}\u{6f}\u{72}\u{7c}\u{73}\u{74}\u{79}\u{6c}\u{65}\u{5d}\u{2c}\u{73}\u{70}\u{61}\u{6e}\u{5b}\u{63}\u{6c}\u{61}\u{73}\u{73}\u{7c}\u{61}\u{6c}\u{69}\u{67}\u{6e}\u{7c}\u{73}\u{74}\u{79}\u{6c}\u{65}\u{5d}\u{27}\u{0d}\u{0a}\u{09}\u{7d}\u{29}\u{3b}\u{0d}\u{0a}\u{7d}\u{0d}\u{0a}\u{66}\u{75}\u{6e}\u{63}\u{74}\u{69}\u{6f}\u{6e}\u{20}\u{73}\u{69}\u{6d}\u{70}\u{6c}\u{65}\u{28}\u{29}\u{20}\u{7b}\u{0d}\u{0a}\u{09}\u{74}\u{69}\u{6e}\u{79}\u{4d}\u{43}\u{45}\u{2e}\u{69}\u{6e}\u{69}\u{74}\u{28}\u{7b}\u{0d}\u{0a}\u{09}\u{6d}\u{6f}\u{64}\u{65}\u{3a}\u{27}\u{74}\u{65}\u{78}\u{74}\u{61}\u{72}\u{65}\u{61}\u{73}\u{27}\u{2c}\u{0d}\u{0a}\u{09}\u{74}\u{68}\u{65}\u{6d}\u{65}\u{3a}\u{27}\u{73}\u{69}\u{6d}\u{70}\u{6c}\u{65}\u{27}\u{2c}\u{0d}\u{0a}\u{09}\u{6c}\u{61}\u{6e}\u{67}\u{75}\u{61}\u{67}\u{65}\u{3a}\u{27}\u{65}\u{6e}\u{27}\u{2c}\u{0d}\u{0a}\u{09}\u{63}\u{6f}\u{6e}\u{76}\u{65}\u{72}\u{74}\u{5f}\u{6e}\u{65}\u{77}\u{6c}\u{69}\u{6e}\u{65}\u{73}\u{5f}\u{74}\u{6f}\u{5f}\u{62}\u{72}\u{73}\u{3a}\u{27}\u{74}\u{72}\u{75}\u{65}\u{27}\u{2c}\u{0d}\u{0a}\u{09}\u{66}\u{6f}\u{72}\u{63}\u{65}\u{5f}\u{62}\u{72}\u{5f}\u{6e}\u{65}\u{77}\u{6c}\u{69}\u{6e}\u{65}\u{73}\u{3a}\u{27}\u{74}\u{72}\u{75}\u{65}\u{27}\u{2c}\u{0d}\u{0a}\u{09}\u{66}\u{6f}\u{72}\u{63}\u{65}\u{5f}\u{70}\u{5f}\u{6e}\u{65}\u{77}\u{6c}\u{69}\u{6e}\u{65}\u{73}\u{3a}\u{27}\u{66}\u{61}\u{6c}\u{73}\u{65}\u{27}\u{0d}\u{0a}\u{09}\u{7d}\u{29}\u{3b}\u{0d}\u{0a}\u{7d}\u{0d}\u{0a}\u{0d}\u{0a}\u{66}\u{75}\u{6e}\u{63}\u{74}\u{69}\u{6f}\u{6e}\u{20}\u{73}\u{68}\u{6f}\u{77}\u{74}\u{69}\u{6e}\u{79}\u{28}\u{45}\u{64}\u{69}\u{74}\u{6f}\u{72}\u{49}\u{44}\u{29}\u{20}\u{7b}\u{0d}\u{0a}\u{09}\u{74}\u{69}\u{6e}\u{79}\u{4d}\u{43}\u{45}\u{2e}\u{72}\u{65}\u{6d}\u{6f}\u{76}\u{65}\u{4d}\u{43}\u{45}\u{43}\u{6f}\u{6e}\u{74}\u{72}\u{6f}\u{6c}\u{28}\u{74}\u{69}\u{6e}\u{79}\u{4d}\u{43}\u{45}\u{2e}\u{67}\u{65}\u{74}\u{45}\u{64}\u{69}\u{74}\u{6f}\u{72}\u{49}\u{64}\u{28}\u{45}\u{64}\u{69}\u{74}\u{6f}\u{72}\u{49}\u{44}\u{29}\u{29}\u{3b}\u{0d}\u{0a}\u{09}\u{74}\u{69}\u{6e}\u{79}\u{4d}\u{43}\u{45}\u{2e}\u{61}\u{64}\u{64}\u{4d}\u{43}\u{45}\u{43}\u{6f}\u{6e}\u{74}\u{72}\u{6f}\u{6c}\u{28}\u{64}\u{6f}\u{63}\u{75}\u{6d}\u{65}\u{6e}\u{74}\u{2e}\u{67}\u{65}\u{74}\u{45}\u{6c}\u{65}\u{6d}\u{65}\u{6e}\u{74}\u{42}\u{79}\u{49}\u{64}\u{28}\u{45}\u{64}\u{69}\u{74}\u{6f}\u{72}\u{49}\u{44}\u{29}\u{2c}\u{45}\u{64}\u{69}\u{74}\u{6f}\u{72}\u{49}\u{44}\u{29}\u{3b}\u{0d}\u{0a}\u{7d}\u{0d}\u{0a}\u{0d}\u{0a}\u{66}\u{75}\u{6e}\u{63}\u{74}\u{69}\u{6f}\u{6e}\u{20}\u{68}\u{69}\u{64}\u{65}\u{74}\u{69}\u{6e}\u{79}\u{28}\u{45}\u{64}\u{69}\u{74}\u{6f}\u{72}\u{49}\u{44}\u{29}\u{20}\u{7b}\u{0d}\u{0a}\u{09}\u{74}\u{69}\u{6e}\u{79}\u{4d}\u{43}\u{45}\u{2e}\u{72}\u{65}\u{6d}\u{6f}\u{76}\u{65}\u{4d}\u{43}\u{45}\u{43}\u{6f}\u{6e}\u{74}\u{72}\u{6f}\u{6c}\u{28}\u{74}\u{69}\u{6e}\u{79}\u{4d}\u{43}\u{45}\u{2e}\u{67}\u{65}\u{74}\u{45}\u{64}\u{69}\u{74}\u{6f}\u{72}\u{49}\u{64}\u{28}\u{45}\u{64}\u{69}\u{74}\u{6f}\u{72}\u{49}\u{44}\u{29}\u{29}\u{3b}\u{0d}\u{0a}\u{7d}\u{0d}\u{0a}\u{3c}\u{2f}\u{73}\u{63}\u{72}\u{69}\u{70}\u{74}\u{3e}\u{5c}\u{6e}"))
(assert (= x_14 (str.++ x_12 literal_13)))
(assert (str.in_re x_14 (re.++ (re.* re.allchar) (re.++ (str.to_re "\u{5c}\u{3c}\u{53}\u{43}\u{52}\u{49}\u{50}\u{54}") (re.* re.allchar)))))
(check-sat)
(exit)
